# Solution for model count
# Objective value = 10
z#1 0
z#2 0
z#3 0
z#4 1
z#5 1
z#6 0
z#7 1
z#8 1
z#9 0
z#10 0
z#11 0
z#12 1
z#13 0
z#14 1
z#15 1
z#16 1
z#17 0
z#18 1
z#19 0
z#20 1
z#21 0
z#22 0
z#23 0
z#24 0
x#24 0
x#23 0
x#22 0
x#21 0
x#20 4207
x#19 0
x#18 448
x#17 0
x#16 1622
x#15 602
x#14 1198
x#13 0
x#12 467
x#11 0
x#10 0
x#9 0
x#8 155
x#7 801
x#6 0
x#5 129
x#4 371
x#3 0
x#2 0
x#1 0
